\ENCODING=ISO-8859-1
\Problem name: ilog.cplex

Minimize
 obj1: 100250 x1 + 90684 x2 + 101760 x3 + 100372 x4 + 96563 x5 + 108043 x6
       + 102133 x7 + 94063 x8 + 91626 x9 + 90853 x10 + 91978 x11 + 109498 x12
       + 100051 x13 + 106582 x14 + 100112 x15 + 106264 x16 + 101796 x17
       + 105482 x18 + 92072 x19 + 102576 x20 + 108940 x21 + 104665 x22
       + 95143 x23 + 98105 x24 + 94053 x25 + 93072 x26 + 109238 x27 + 99580 x28
       + 96561 x29 + 102589 x30 + 100886 x31 + 90628 x32 + 96633 x33
       + 100713 x34 + 96046 x35 + 95384 x36 + 94910 x37 + 91007 x38 + 91546 x39
       + 103942 x40 + 100764 x41 + 98983 x42 + 94665 x43 + 97017 x44
       + 91811 x45 + 93108 x46 + 95675 x47 + 107012 x48 + 103045 x49
       + 103318 x50 + 92699 x51 + 106541 x52 + 109761 x53 + 99081 x54
       + 91947 x55 + 94160 x56 + 97429 x57 + 94244 x58 + 100755 x59
       + 109764 x60 + 91314 x61 + 100355 x62 + 95448 x63 + 92824 x64
       + 91143 x65 + 91037 x66 + 98006 x67 + 93920 x68 + 103222 x69 + 91270 x70
       + 98016 x71 + 102757 x72 + 97949 x73 + 103472 x74 + 96161 x75
       + 94822 x76 + 91472 x77 + 108322 x78 + 95529 x79 + 92643 x80
       + 105593 x81 + 102620 x82 + 105323 x83 + 109173 x84 + 106144 x85
       + 108359 x86 + 100467 x87 + 98049 x88 + 96780 x89 + 94727 x90
       + 100189 x91 + 98299 x92 + 92506 x93 + 97872 x94 + 108784 x95
       + 109524 x96 + 95252 x97 + 102070 x98 + 102614 x99 + 107668 x100
       + 91207 x101 + 98445 x102 + 102156 x103 + 103102 x104 + 92889 x105
       + 109758 x106 + 103154 x107 + 97197 x108 + 103153 x109 + 103041 x110
       + 109713 x111 + 108817 x112 + 107907 x113 + 99014 x114 + 92337 x115
       + 92186 x116 + 105565 x117 + 94750 x118 + 90931 x119 + 90689 x120
       + 96080 x121 + 100342 x122 + 104920 x123 + 98943 x124 + 108147 x125
       + 98655 x126 + 104398 x127 + 107186 x128 + 109861 x129 + 90444 x130
       + 98006 x131 + 107368 x132 + 92787 x133 + 91438 x134 + 108196 x135
       + 107341 x136 + 109773 x137 + 102790 x138 + 95244 x139 + 107265 x140
       + 102752 x141 + 101824 x142 + 97598 x143 + 100600 x144 + 98386 x145
       + 96099 x146 + 98061 x147 + 91013 x148 + 96618 x149 + 90561 x150
       + 94906 x151 + 93559 x152 + 98803 x153 + 90131 x154 + 106279 x155
       + 101347 x156 + 98814 x157 + 101713 x158 + 101036 x159 + 96029 x160
       + 106524 x161 + 94200 x162 + 98539 x163 + 104060 x164 + 95545 x165
       + 96668 x166 + 99819 x167 + 104026 x168 + 101378 x169 + 102228 x170
       + 94418 x171 + 100007 x172 + 107676 x173 + 95018 x174 + 109865 x175
       + 99973 x176 + 95295 x177 + 104982 x178 + 109936 x179 + 108873 x180
       + 93924 x181 + 93478 x182 + 90242 x183 + 104231 x184 + 91231 x185
       + 96209 x186 + 92680 x187 + 95853 x188 + 90283 x189 + 99071 x190
       + 103864 x191 + 100603 x192 + 102427 x193 + 97195 x194 + 96929 x195
       + 108281 x196 + 99847 x197 + 107804 x198 + 100938 x199 + 95212 x200
       + 98498 x201 + 90100 x202 + 103962 x203 + 91287 x204 + 95716 x205
       + 106896 x206 + 101910 x207 + 94488 x208 + 102403 x209 + 90226 x210
       + 100741 x211 + 99377 x212 + 102808 x213 + 109413 x214 + 91278 x215
       + 102687 x216 + 108139 x217 + 106030 x218 + 107904 x219 + 100882 x220
       + 90959 x221 + 106169 x222 + 104679 x223 + 91253 x224 + 94376 x225
       + 95051 x226 + 97186 x227 + 104609 x228 + 100345 x229 + 99791 x230
       + 96864 x231 + 95702 x232 + 102632 x233 + 109432 x234 + 101118 x235
       + 108614 x236 + 106930 x237 + 105281 x238 + 104743 x239 + 96118 x240
       + 93094 x241 + 99139 x242 + 106014 x243 + 104336 x244 + 102641 x245
       + 102188 x246 + 94258 x247 + 97046 x248 + 98394 x249 + 93100 x250
       + 100359 x251 + 91830 x252 + 90517 x253 + 94779 x254 + 100838 x255
       + 100329 x256 + 100181 x257 + 101347 x258 + 104352 x259 + 93580 x260
       + 108546 x261 + 95142 x262 + 102190 x263 + 95112 x264 + 91146 x265
       + 105055 x266 + 106599 x267 + 90525 x268 + 96411 x269 + 93371 x270
       + 97677 x271 + 107786 x272 + 91168 x273 + 91612 x274 + 104382 x275
       + 92958 x276 + 103064 x277 + 94445 x278 + 97103 x279 + 102401 x280
       + 99260 x281 + 95599 x282 + 100704 x283 + 102214 x284 + 109982 x285
       + 109760 x286 + 108977 x287 + 101003 x288 + 105403 x289 + 100075 x290
       + 94145 x291 + 103016 x292 + 104795 x293 + 102117 x294 + 98315 x295
       + 95290 x296 + 97997 x297 + 102134 x298 + 107763 x299 + 94618 x300
       + 98039 x301 + 109959 x302 + 104187 x303 + 92133 x304 + 103939 x305
       + 90257 x306 + 104433 x307 + 103171 x308 + 100000 x309 + 102291 x310
       + 107916 x311 + 102594 x312 + 108893 x313 + 98056 x314 + 101359 x315
       + 95529 x316 + 102963 x317 + 108955 x318 + 92865 x319 + 95781 x320
       + 105119 x321 + 99997 x322 + 108173 x323 + 104621 x324 + 104699 x325
       + 91868 x326 + 106609 x327 + 95533 x328 + 94314 x329 + 99096 x330
       + 99688 x331 + 99199 x332 + 96488 x333 + 99856 x334 + 98464 x335
       + 103232 x336 + 97375 x337 + 90990 x338 + 94492 x339 + 101917 x340
       + 98922 x341 + 90394 x342 + 93681 x343 + 92680 x344 + 100540 x345
       + 108192 x346 + 92302 x347 + 98055 x348 + 106694 x349 + 97957 x350
       + 99747 x351 + 96627 x352 + 93256 x353 + 98083 x354 + 97814 x355
       + 104124 x356 + 100597 x357 + 97449 x358 + 97617 x359 + 92167 x360
       + 92856 x361 + 109821 x362 + 99086 x363 + 98224 x364 + 102449 x365
       + 106918 x366 + 106124 x367 + 91420 x368 + 100386 x369 + 103062 x370
       + 105904 x371 + 106503 x372 + 105459 x373 + 92556 x374 + 95781 x375
       + 109935 x376 + 97820 x377 + 91146 x378 + 90495 x379 + 100700 x380
       + 102308 x381 + 99081 x382 + 107833 x383 + 94678 x384 + 95156 x385
       + 104865 x386 + 107016 x387 + 103329 x388 + 96656 x389 + 96012 x390
       + 100846 x391 + 94958 x392 + 101897 x393 + 95934 x394 + 99972 x395
       + 99983 x396 + 91865 x397 + 104563 x398 + 95660 x399 + 90359 x400
       + 107768 x401 + 104855 x402 + 103176 x403 + 100044 x404 + 95145 x405
       + 107007 x406 + 100472 x407 + 93137 x408 + 101791 x409 + 90196 x410
       + 104893 x411 + 99381 x412 + 103581 x413 + 98505 x414 + 97139 x415
       + 105550 x416 + 106673 x417 + 104503 x418 + 104766 x419 + 104696 x420
       + 105631 x421 + 93224 x422 + 93173 x423 + 108957 x424 + 105043 x425
       + 106209 x426 + 100506 x427 + 94384 x428 + 107469 x429 + 107612 x430
       + 93329 x431 + 94175 x432 + 99944 x433 + 90799 x434 + 94590 x435
       + 90933 x436 + 96288 x437 + 100917 x438 + 95768 x439 + 103454 x440
       + 93135 x441 + 106588 x442 + 91006 x443 + 98997 x444 + 93821 x445
       + 92192 x446 + 102656 x447 + 108154 x448 + 106215 x449 + 101105 x450
       + 99840 x451 + 94569 x452 + 91622 x453 + 96540 x454 + 93184 x455
       + 108015 x456 + 92511 x457 + 97604 x458 + 101259 x459 + 94455 x460
       + 96107 x461 + 104876 x462 + 90817 x463 + 99052 x464 + 101019 x465
       + 108115 x466 + 95179 x467 + 91812 x468 + 97541 x469 + 96744 x470
       + 99863 x471 + 90603 x472 + 103916 x473 + 105287 x474 + 94265 x475
       + 102813 x476 + 97002 x477 + 104415 x478 + 93687 x479 + 92421 x480
       + 107547 x481 + 93849 x482 + 100553 x483 + 107078 x484 + 102703 x485
       + 101500 x486 + 98804 x487 + 93286 x488 + 101331 x489 + 96988 x490
       + 101323 x491 + 106778 x492 + 101327 x493 + 107092 x494 + 96604 x495
       + 109993 x496 + 102389 x497 + 95694 x498 + 107959 x499 + 285645 x500
       + 415046 x501 + 397527 x502 + 431495 x503 + 413902 x504 + 408045 x505
       + 392990 x506 + 387468 x507 + 435354 x508 + 385923 x509 + 365684 x510
       + 373928 x511 + 368411 x512 + 381121 x513 + 439396 x514 + 435372 x515
       + 414043 x516 + 433447 x517 + 393973 x518 + 390985 x519 + 418499 x520
       + 404167 x521 + 382887 x522 + 367951 x523 + 396205 x524 + 393668 x525
       + 374134 x526 + 433471 x527 + 387367 x528 + 395680 x529 + 398496 x530
       + 412306 x531 + 397792 x532 + 430506 x533 + 383016 x534 + 439806 x535
       + 366018 x536 + 416661 x537 + 388883 x538 + 431133 x539 + 367901 x540
       + 384783 x541 + 421737 x542 + 365559 x543 + 361417 x544 + 389607 x545
       + 438739 x546 + 370452 x547 + 374492 x548 + 435286 x549 + 407271 x550
Subject To
 c1:   x16 + x20 - x25 + x32 + x33 - x37 + x40 - x46  = 0
 c2:   x66 + x70 - x75 + x82 + x83 - x87 + x90 - x96  = 0
 c3:   x116 + x120 - x125 + x132 + x133 - x137 + x140 - x146  = 0
 c4:   x166 + x170 - x175 + x182 + x183 - x187 + x190 - x196  = 0
 c5:   x216 + x220 - x225 + x232 + x233 - x237 + x240 - x246  = 0
 c6:   x266 + x270 - x275 + x282 + x283 - x287 + x290 - x296  = 0
 c7:   x316 + x320 - x325 + x332 + x333 - x337 + x340 - x346  = 0
 c8:   x366 + x370 - x375 + x382 + x383 - x387 + x390 - x396  = 0
 c9:   x416 + x420 - x425 + x432 + x433 - x437 + x440 - x446  = 0
 c10:  x466 + x470 - x475 + x482 + x483 - x487 + x490 - x496  = 0
 c11:  - x14 + x21 - x26 - x27 - x34 + x38 + x48  = 0
 c12:  - x64 + x71 - x76 - x77 - x84 + x88 + x98  = 0
 c13:  - x114 + x121 - x126 - x127 - x134 + x138 + x148  = 0
 c14:  - x164 + x171 - x176 - x177 - x184 + x188 + x198  = 0
 c15:  - x214 + x221 - x226 - x227 - x234 + x238 + x248  = 0
 c16:  - x264 + x271 - x276 - x277 - x284 + x288 + x298  = 0
 c17:  - x314 + x321 - x326 - x327 - x334 + x338 + x348  = 0
 c18:  - x364 + x371 - x376 - x377 - x384 + x388 + x398  = 0
 c19:  - x414 + x421 - x426 - x427 - x434 + x438 + x448  = 0
 c20:  - x464 + x471 - x476 - x477 - x484 + x488 + x498  = 0
 c21:  x5 + x14 - x32 - x39 + x42 - x45  = 0
 c22:  x55 + x64 - x82 - x89 + x92 - x95  = 0
 c23:  x105 + x114 - x132 - x139 + x142 - x145  = 0
 c24:  x155 + x164 - x182 - x189 + x192 - x195  = 0
 c25:  x205 + x214 - x232 - x239 + x242 - x245  = 1
 c26:  x255 + x264 - x282 - x289 + x292 - x295  = 0
 c27:  x305 + x314 - x332 - x339 + x342 - x345  = 0
 c28:  x355 + x364 - x382 - x389 + x392 - x395  = 0
 c29:  x405 + x414 - x432 - x439 + x442 - x445  = 0
 c30:  x455 + x464 - x482 - x489 + x492 - x495  = 0
 c31:  - x11 - x13 + x36 + x50  = 1
 c32:  - x61 - x63 + x86 + x100  = -1
 c33:  - x111 - x113 + x136 + x150  = 0
 c34:  - x161 - x163 + x186 + x200  = 0
 c35:  - x211 - x213 + x236 + x250  = 0
 c36:  - x261 - x263 + x286 + x300  = 0
 c37:  - x311 - x313 + x336 + x350  = 0
 c38:  - x361 - x363 + x386 + x400  = 1
 c39:  - x411 - x413 + x436 + x450  = 0
 c40:  - x461 - x463 + x486 + x500  = 0
 c41:  - x10 - x17 - x20 - x23 + x34 + x43 + x45  = 0
 c42:  - x60 - x67 - x70 - x73 + x84 + x93 + x95  = 0
 c43:  - x110 - x117 - x120 - x123 + x134 + x143 + x145  = 0
 c44:  - x160 - x167 - x170 - x173 + x184 + x193 + x195  = 0
 c45:  - x210 - x217 - x220 - x223 + x234 + x243 + x245  = 0
 c46:  - x260 - x267 - x270 - x273 + x284 + x293 + x295  = 0
 c47:  - x310 - x317 - x320 - x323 + x334 + x343 + x345  = 0
 c48:  - x360 - x367 - x370 - x373 + x384 + x393 + x395  = 0
 c49:  - x410 - x417 - x420 - x423 + x434 + x443 + x445  = 0
 c50:  - x460 - x467 - x470 - x473 + x484 + x493 + x495  = 1
 c51:  x17 + x22 + x35 - x47 - x48  = 0
 c52:  x67 + x72 + x85 - x97 - x98  = 0
 c53:  x117 + x122 + x135 - x147 - x148  = 0
 c54:  x167 + x172 + x185 - x197 - x198  = 0
 c55:  x217 + x222 + x235 - x247 - x248  = -1
 c56:  x267 + x272 + x285 - x297 - x298  = 0
 c57:  x317 + x322 + x335 - x347 - x348  = 0
 c58:  x367 + x372 + x385 - x397 - x398  = 0
 c59:  x417 + x422 + x435 - x447 - x448  = 0
 c60:  x467 + x472 + x485 - x497 - x498  = 0
 c61:  - x7 + x10 + x11 + x15 + x24 + x25 - x30 - x33 + x44  = 0
 c62:  - x57 + x60 + x61 + x65 + x74 + x75 - x80 - x83 + x94  = 0
 c63:  - x107 + x110 + x111 + x115 + x124 + x125 - x130 - x133 + x144  = 0
 c64:  - x157 + x160 + x161 + x165 + x174 + x175 - x180 - x183 + x194  = 0
 c65:  - x207 + x210 + x211 + x215 + x224 + x225 - x230 - x233 + x244  = 0
 c66:  - x257 + x260 + x261 + x265 + x274 + x275 - x280 - x283 + x294  = 0
 c67:  - x307 + x310 + x311 + x315 + x324 + x325 - x330 - x333 + x344  = 0
 c68:  - x357 + x360 + x361 + x365 + x374 + x375 - x380 - x383 + x394  = 0
 c69:  - x407 + x410 + x411 + x415 + x424 + x425 - x430 - x433 + x444  = 0
 c70:  - x457 + x460 + x461 + x465 + x474 + x475 - x480 - x483 + x494  = 0
 c71:  - x6 - x19 + x39 + x49  = 0
 c72:  - x56 - x69 + x89 + x99  = 0
 c73:  - x106 - x119 + x139 + x149  = 1
 c74:  - x156 - x169 + x189 + x199  = 0
 c75:  - x206 - x219 + x239 + x249  = 0
 c76:  - x256 - x269 + x289 + x299  = 0
 c77:  - x306 - x319 + x339 + x349  = 0
 c78:  - x356 - x369 + x389 + x399  = 0
 c79:  - x406 - x419 + x439 + x449  = 0
 c80:  - x456 - x469 + x489 + x499  = 0
 c81:  x3 + x7 + x12 - x18 + x19 - x21 + x29  = 0
 c82:  x53 + x57 + x62 - x68 + x69 - x71 + x79  = 0
 c83:  x103 + x107 + x112 - x118 + x119 - x121 + x129  = 0
 c84:  x153 + x157 + x162 - x168 + x169 - x171 + x179  = 0
 c85:  x203 + x207 + x212 - x218 + x219 - x221 + x229  = 0
 c86:  x253 + x257 + x262 - x268 + x269 - x271 + x279  = 0
 c87:  x303 + x307 + x312 - x318 + x319 - x321 + x329  = 0
 c88:  x353 + x357 + x362 - x368 + x369 - x371 + x379  = 0
 c89:  x403 + x407 + x412 - x418 + x419 - x421 + x429  = 0
 c90:  x453 + x457 + x462 - x468 + x469 - x471 + x479  = 0
 c91:  x1 - x3 + x8 + x27 + x28 - x35 - x36 - x42 + x47  = -1
 c92:  x51 - x53 + x58 + x77 + x78 - x85 - x86 - x92 + x97  = 1
 c93:  x101 - x103 + x108 + x127 + x128 - x135 - x136 - x142 + x147  = 0
 c94:  x151 - x153 + x158 + x177 + x178 - x185 - x186 - x192 + x197  = 0
 c95:  x201 - x203 + x208 + x227 + x228 - x235 - x236 - x242 + x247  = 0
 c96:  x251 - x253 + x258 + x277 + x278 - x285 - x286 - x292 + x297  = -1
 c97:  x301 - x303 + x308 + x327 + x328 - x335 - x336 - x342 + x347  = 0
 c98:  x351 - x353 + x358 + x377 + x378 - x385 - x386 - x392 + x397  = 0
 c99:  x401 - x403 + x408 + x427 + x428 - x435 - x436 - x442 + x447  = 0
 c100: x451 - x453 + x458 + x477 + x478 - x485 - x486 - x492 + x497  = 0
 c101: - x9 + x18 + x23 + x30 - x40 + x46  = 0
 c102: - x59 + x68 + x73 + x80 - x90 + x96  = 0
 c103: - x109 + x118 + x123 + x130 - x140 + x146  = 0
 c104: - x159 + x168 + x173 + x180 - x190 + x196  = 0
 c105: - x209 + x218 + x223 + x230 - x240 + x246  = 0
 c106: - x259 + x268 + x273 + x280 - x290 + x296  = 0
 c107: - x309 + x318 + x323 + x330 - x340 + x346  = 0
 c108: - x359 + x368 + x373 + x380 - x390 + x396  = 0
 c109: - x409 + x418 + x423 + x430 - x440 + x446  = 1
 c110: - x459 + x468 + x473 + x480 - x490 + x496  = 0
 c111: - x2 - x12 - x15 + x26 - x41 - x43 - x49  = 0
 c112: - x52 - x62 - x65 + x76 - x91 - x93 - x99  = 0
 c113: - x102 - x112 - x115 + x126 - x141 - x143 - x149  = 0
 c114: - x152 - x162 - x165 + x176 - x191 - x193 - x199  = 0
 c115: - x202 - x212 - x215 + x226 - x241 - x243 - x249  = 0
 c116: - x252 - x262 - x265 + x276 - x291 - x293 - x299  = 0
 c117: - x302 - x312 - x315 + x326 - x341 - x343 - x349  = -1
 c118: - x352 - x362 - x365 + x376 - x391 - x393 - x399  = 0
 c119: - x402 - x412 - x415 + x426 - x441 - x443 - x449  = 0
 c120: - x452 - x462 - x465 + x476 - x491 - x493 - x499  = 0
 c121: - x28 - x38 + x41  = 0
 c122: - x78 - x88 + x91  = 0
 c123: - x128 - x138 + x141  = 0
 c124: - x178 - x188 + x191  = 1
 c125: - x228 - x238 + x241  = 0
 c126: - x278 - x288 + x291  = 0
 c127: - x328 - x338 + x341  = 0
 c128: - x378 - x388 + x391  = 0
 c129: - x428 - x438 + x441  = -1
 c130: - x478 - x488 + x491  = 0
 c131: x4 - x8 + x9 - x22 - x29 - x31 + x37 - x44 - x50  = 0
 c132: x54 - x58 + x59 - x72 - x79 - x81 + x87 - x94 - x100  = 0
 c133: x104 - x108 + x109 - x122 - x129 - x131 + x137 - x144 - x150  = 0
 c134: x154 - x158 + x159 - x172 - x179 - x181 + x187 - x194 - x200  = 0
 c135: x204 - x208 + x209 - x222 - x229 - x231 + x237 - x244 - x250  = 0
 c136: x254 - x258 + x259 - x272 - x279 - x281 + x287 - x294 - x300  = 1
 c137: x304 - x308 + x309 - x322 - x329 - x331 + x337 - x344 - x350  = 0
 c138: x354 - x358 + x359 - x372 - x379 - x381 + x387 - x394 - x400  = -1
 c139: x404 - x408 + x409 - x422 - x429 - x431 + x437 - x444 - x450  = 0
 c140: x454 - x458 + x459 - x472 - x479 - x481 + x487 - x494 - x500  = -1
 c141: - x1 + x2 - x4 - x5 + x6 + x13 - x16 - x24 + x31  = 0
 c142: - x51 + x52 - x54 - x55 + x56 + x63 - x66 - x74 + x81  = 0
 c143: - x101 + x102 - x104 - x105 + x106 + x113 - x116 - x124 + x131  = -1
 c144: - x151 + x152 - x154 - x155 + x156 + x163 - x166 - x174 + x181  = -1
 c145: - x201 + x202 - x204 - x205 + x206 + x213 - x216 - x224 + x231  = 0
 c146: - x251 + x252 - x254 - x255 + x256 + x263 - x266 - x274 + x281  = 0
 c147: - x301 + x302 - x304 - x305 + x306 + x313 - x316 - x324 + x331  = 1
 c148: - x351 + x352 - x354 - x355 + x356 + x363 - x366 - x374 + x381  = 0
 c149: - x401 + x402 - x404 - x405 + x406 + x413 - x416 - x424 + x431  = 0
 c150: - x451 + x452 - x454 - x455 + x456 + x463 - x466 - x474 + x481  = 0
 c151: 4 x1 + 4 x51 + 4 x101 + 4 x151 + 4 x201 + 4 x251 + 4 x301 + 4 x351
       + 4 x401 + 4 x451 - 5 x501 <= 0
 c152: 4 x2 + 4 x52 + 4 x102 + 4 x152 + 4 x202 + 4 x252 + 4 x302 + 4 x352
       + 4 x402 + 4 x452 - 5 x502 <= 0
 c153: 4 x3 + 4 x53 + 4 x103 + 4 x153 + 4 x203 + 4 x253 + 4 x303 + 4 x353
       + 4 x403 + 4 x453 - 5 x503 <= 0
 c154: 4 x4 + 4 x54 + 4 x104 + 4 x154 + 4 x204 + 4 x254 + 4 x304 + 4 x354
       + 4 x404 + 4 x454 - 5 x504 <= 0
 c155: 4 x5 + 4 x55 + 4 x105 + 4 x155 + 4 x205 + 4 x255 + 4 x305 + 4 x355
       + 4 x405 + 4 x455 - 5 x505 <= 0
 c156: 4 x6 + 4 x56 + 4 x106 + 4 x156 + 4 x206 + 4 x256 + 4 x306 + 4 x356
       + 4 x406 + 4 x456 - 5 x506 <= 0
 c157: 4 x7 + 4 x57 + 4 x107 + 4 x157 + 4 x207 + 4 x257 + 4 x307 + 4 x357
       + 4 x407 + 4 x457 - 5 x507 <= 0
 c158: 4 x8 + 4 x58 + 4 x108 + 4 x158 + 4 x208 + 4 x258 + 4 x308 + 4 x358
       + 4 x408 + 4 x458 - 5 x508 <= 0
 c159: 4 x9 + 4 x59 + 4 x109 + 4 x159 + 4 x209 + 4 x259 + 4 x309 + 4 x359
       + 4 x409 + 4 x459 - 5 x509 <= 0
 c160: 4 x10 + 4 x60 + 4 x110 + 4 x160 + 4 x210 + 4 x260 + 4 x310 + 4 x360
       + 4 x410 + 4 x460 - 5 x510 <= 0
 c161: 4 x11 + 4 x61 + 4 x111 + 4 x161 + 4 x211 + 4 x261 + 4 x311 + 4 x361
       + 4 x411 + 4 x461 - 5 x511 <= 0
 c162: 4 x12 + 4 x62 + 4 x112 + 4 x162 + 4 x212 + 4 x262 + 4 x312 + 4 x362
       + 4 x412 + 4 x462 - 5 x512 <= 0
 c163: 4 x13 + 4 x63 + 4 x113 + 4 x163 + 4 x213 + 4 x263 + 4 x313 + 4 x363
       + 4 x413 + 4 x463 - 5 x513 <= 0
 c164: 4 x14 + 4 x64 + 4 x114 + 4 x164 + 4 x214 + 4 x264 + 4 x314 + 4 x364
       + 4 x414 + 4 x464 - 5 x514 <= 0
 c165: 4 x15 + 4 x65 + 4 x115 + 4 x165 + 4 x215 + 4 x265 + 4 x315 + 4 x365
       + 4 x415 + 4 x465 - 5 x515 <= 0
 c166: 4 x16 + 4 x66 + 4 x116 + 4 x166 + 4 x216 + 4 x266 + 4 x316 + 4 x366
       + 4 x416 + 4 x466 - 5 x516 <= 0
 c167: 4 x17 + 4 x67 + 4 x117 + 4 x167 + 4 x217 + 4 x267 + 4 x317 + 4 x367
       + 4 x417 + 4 x467 - 5 x517 <= 0
 c168: 4 x18 + 4 x68 + 4 x118 + 4 x168 + 4 x218 + 4 x268 + 4 x318 + 4 x368
       + 4 x418 + 4 x468 - 5 x518 <= 0
 c169: 4 x19 + 4 x69 + 4 x119 + 4 x169 + 4 x219 + 4 x269 + 4 x319 + 4 x369
       + 4 x419 + 4 x469 - 5 x519 <= 0
 c170: 4 x20 + 4 x70 + 4 x120 + 4 x170 + 4 x220 + 4 x270 + 4 x320 + 4 x370
       + 4 x420 + 4 x470 - 5 x520 <= 0
 c171: 4 x21 + 4 x71 + 4 x121 + 4 x171 + 4 x221 + 4 x271 + 4 x321 + 4 x371
       + 4 x421 + 4 x471 - 5 x521 <= 0
 c172: 4 x22 + 4 x72 + 4 x122 + 4 x172 + 4 x222 + 4 x272 + 4 x322 + 4 x372
       + 4 x422 + 4 x472 - 5 x522 <= 0
 c173: 4 x23 + 4 x73 + 4 x123 + 4 x173 + 4 x223 + 4 x273 + 4 x323 + 4 x373
       + 4 x423 + 4 x473 - 5 x523 <= 0
 c174: 4 x24 + 4 x74 + 4 x124 + 4 x174 + 4 x224 + 4 x274 + 4 x324 + 4 x374
       + 4 x424 + 4 x474 - 5 x524 <= 0
 c175: 4 x25 + 4 x75 + 4 x125 + 4 x175 + 4 x225 + 4 x275 + 4 x325 + 4 x375
       + 4 x425 + 4 x475 - 5 x525 <= 0
 c176: 4 x26 + 4 x76 + 4 x126 + 4 x176 + 4 x226 + 4 x276 + 4 x326 + 4 x376
       + 4 x426 + 4 x476 - 5 x526 <= 0
 c177: 4 x27 + 4 x77 + 4 x127 + 4 x177 + 4 x227 + 4 x277 + 4 x327 + 4 x377
       + 4 x427 + 4 x477 - 5 x527 <= 0
 c178: 4 x28 + 4 x78 + 4 x128 + 4 x178 + 4 x228 + 4 x278 + 4 x328 + 4 x378
       + 4 x428 + 4 x478 - 5 x528 <= 0
 c179: 4 x29 + 4 x79 + 4 x129 + 4 x179 + 4 x229 + 4 x279 + 4 x329 + 4 x379
       + 4 x429 + 4 x479 - 5 x529 <= 0
 c180: 4 x30 + 4 x80 + 4 x130 + 4 x180 + 4 x230 + 4 x280 + 4 x330 + 4 x380
       + 4 x430 + 4 x480 - 5 x530 <= 0
 c181: 4 x31 + 4 x81 + 4 x131 + 4 x181 + 4 x231 + 4 x281 + 4 x331 + 4 x381
       + 4 x431 + 4 x481 - 5 x531 <= 0
 c182: 4 x32 + 4 x82 + 4 x132 + 4 x182 + 4 x232 + 4 x282 + 4 x332 + 4 x382
       + 4 x432 + 4 x482 - 5 x532 <= 0
 c183: 4 x33 + 4 x83 + 4 x133 + 4 x183 + 4 x233 + 4 x283 + 4 x333 + 4 x383
       + 4 x433 + 4 x483 - 5 x533 <= 0
 c184: 4 x34 + 4 x84 + 4 x134 + 4 x184 + 4 x234 + 4 x284 + 4 x334 + 4 x384
       + 4 x434 + 4 x484 - 5 x534 <= 0
 c185: 4 x35 + 4 x85 + 4 x135 + 4 x185 + 4 x235 + 4 x285 + 4 x335 + 4 x385
       + 4 x435 + 4 x485 - 5 x535 <= 0
 c186: 4 x36 + 4 x86 + 4 x136 + 4 x186 + 4 x236 + 4 x286 + 4 x336 + 4 x386
       + 4 x436 + 4 x486 - 5 x536 <= 0
 c187: 4 x37 + 4 x87 + 4 x137 + 4 x187 + 4 x237 + 4 x287 + 4 x337 + 4 x387
       + 4 x437 + 4 x487 - 5 x537 <= 0
 c188: 4 x38 + 4 x88 + 4 x138 + 4 x188 + 4 x238 + 4 x288 + 4 x338 + 4 x388
       + 4 x438 + 4 x488 - 5 x538 <= 0
 c189: 4 x39 + 4 x89 + 4 x139 + 4 x189 + 4 x239 + 4 x289 + 4 x339 + 4 x389
       + 4 x439 + 4 x489 - 5 x539 <= 0
 c190: 4 x40 + 4 x90 + 4 x140 + 4 x190 + 4 x240 + 4 x290 + 4 x340 + 4 x390
       + 4 x440 + 4 x490 - 5 x540 <= 0
 c191: 4 x41 + 4 x91 + 4 x141 + 4 x191 + 4 x241 + 4 x291 + 4 x341 + 4 x391
       + 4 x441 + 4 x491 - 5 x541 <= 0
 c192: 4 x42 + 4 x92 + 4 x142 + 4 x192 + 4 x242 + 4 x292 + 4 x342 + 4 x392
       + 4 x442 + 4 x492 - 5 x542 <= 0
 c193: 4 x43 + 4 x93 + 4 x143 + 4 x193 + 4 x243 + 4 x293 + 4 x343 + 4 x393
       + 4 x443 + 4 x493 - 5 x543 <= 0
 c194: 4 x44 + 4 x94 + 4 x144 + 4 x194 + 4 x244 + 4 x294 + 4 x344 + 4 x394
       + 4 x444 + 4 x494 - 5 x544 <= 0
 c195: 4 x45 + 4 x95 + 4 x145 + 4 x195 + 4 x245 + 4 x295 + 4 x345 + 4 x395
       + 4 x445 + 4 x495 - 5 x545 <= 0
 c196: 4 x46 + 4 x96 + 4 x146 + 4 x196 + 4 x246 + 4 x296 + 4 x346 + 4 x396
       + 4 x446 + 4 x496 - 5 x546 <= 0
 c197: 4 x47 + 4 x97 + 4 x147 + 4 x197 + 4 x247 + 4 x297 + 4 x347 + 4 x397
       + 4 x447 + 4 x497 - 5 x547 <= 0
 c198: 4 x48 + 4 x98 + 4 x148 + 4 x198 + 4 x248 + 4 x298 + 4 x348 + 4 x398
       + 4 x448 + 4 x498 - 5 x548 <= 0
 c199: 4 x49 + 4 x99 + 4 x149 + 4 x199 + 4 x249 + 4 x299 + 4 x349 + 4 x399
       + 4 x449 + 4 x499 - 5 x549 <= 0
 c200: 4 x50 + 4 x100 + 4 x150 + 4 x200 + 4 x250 + 4 x300 + 4 x350 + 4 x400
       + 4 x450 + 4 x500 - 5 x550 <= 0
Bounds
 0 <= x1 <= 1
 0 <= x2 <= 1
 0 <= x3 <= 1
 0 <= x4 <= 1
 0 <= x5 <= 1
 0 <= x6 <= 1
 0 <= x7 <= 1
 0 <= x8 <= 1
 0 <= x9 <= 1
 0 <= x10 <= 1
 0 <= x11 <= 1
 0 <= x12 <= 1
 0 <= x13 <= 1
 0 <= x14 <= 1
 0 <= x15 <= 1
 0 <= x16 <= 1
 0 <= x17 <= 1
 0 <= x18 <= 1
 0 <= x19 <= 1
 0 <= x20 <= 1
 0 <= x21 <= 1
 0 <= x22 <= 1
 0 <= x23 <= 1
 0 <= x24 <= 1
 0 <= x25 <= 1
 0 <= x26 <= 1
 0 <= x27 <= 1
 0 <= x28 <= 1
 0 <= x29 <= 1
 0 <= x30 <= 1
 0 <= x31 <= 1
 0 <= x32 <= 1
 0 <= x33 <= 1
 0 <= x34 <= 1
 0 <= x35 <= 1
 0 <= x36 <= 1
 0 <= x37 <= 1
 0 <= x38 <= 1
 0 <= x39 <= 1
 0 <= x40 <= 1
 0 <= x41 <= 1
 0 <= x42 <= 1
 0 <= x43 <= 1
 0 <= x44 <= 1
 0 <= x45 <= 1
 0 <= x46 <= 1
 0 <= x47 <= 1
 0 <= x48 <= 1
 0 <= x49 <= 1
 0 <= x50 <= 1
 0 <= x51 <= 1
 0 <= x52 <= 1
 0 <= x53 <= 1
 0 <= x54 <= 1
 0 <= x55 <= 1
 0 <= x56 <= 1
 0 <= x57 <= 1
 0 <= x58 <= 1
 0 <= x59 <= 1
 0 <= x60 <= 1
 0 <= x61 <= 1
 0 <= x62 <= 1
 0 <= x63 <= 1
 0 <= x64 <= 1
 0 <= x65 <= 1
 0 <= x66 <= 1
 0 <= x67 <= 1
 0 <= x68 <= 1
 0 <= x69 <= 1
 0 <= x70 <= 1
 0 <= x71 <= 1
 0 <= x72 <= 1
 0 <= x73 <= 1
 0 <= x74 <= 1
 0 <= x75 <= 1
 0 <= x76 <= 1
 0 <= x77 <= 1
 0 <= x78 <= 1
 0 <= x79 <= 1
 0 <= x80 <= 1
 0 <= x81 <= 1
 0 <= x82 <= 1
 0 <= x83 <= 1
 0 <= x84 <= 1
 0 <= x85 <= 1
 0 <= x86 <= 1
 0 <= x87 <= 1
 0 <= x88 <= 1
 0 <= x89 <= 1
 0 <= x90 <= 1
 0 <= x91 <= 1
 0 <= x92 <= 1
 0 <= x93 <= 1
 0 <= x94 <= 1
 0 <= x95 <= 1
 0 <= x96 <= 1
 0 <= x97 <= 1
 0 <= x98 <= 1
 0 <= x99 <= 1
 0 <= x100 <= 1
 0 <= x101 <= 1
 0 <= x102 <= 1
 0 <= x103 <= 1
 0 <= x104 <= 1
 0 <= x105 <= 1
 0 <= x106 <= 1
 0 <= x107 <= 1
 0 <= x108 <= 1
 0 <= x109 <= 1
 0 <= x110 <= 1
 0 <= x111 <= 1
 0 <= x112 <= 1
 0 <= x113 <= 1
 0 <= x114 <= 1
 0 <= x115 <= 1
 0 <= x116 <= 1
 0 <= x117 <= 1
 0 <= x118 <= 1
 0 <= x119 <= 1
 0 <= x120 <= 1
 0 <= x121 <= 1
 0 <= x122 <= 1
 0 <= x123 <= 1
 0 <= x124 <= 1
 0 <= x125 <= 1
 0 <= x126 <= 1
 0 <= x127 <= 1
 0 <= x128 <= 1
 0 <= x129 <= 1
 0 <= x130 <= 1
 0 <= x131 <= 1
 0 <= x132 <= 1
 0 <= x133 <= 1
 0 <= x134 <= 1
 0 <= x135 <= 1
 0 <= x136 <= 1
 0 <= x137 <= 1
 0 <= x138 <= 1
 0 <= x139 <= 1
 0 <= x140 <= 1
 0 <= x141 <= 1
 0 <= x142 <= 1
 0 <= x143 <= 1
 0 <= x144 <= 1
 0 <= x145 <= 1
 0 <= x146 <= 1
 0 <= x147 <= 1
 0 <= x148 <= 1
 0 <= x149 <= 1
 0 <= x150 <= 1
 0 <= x151 <= 1
 0 <= x152 <= 1
 0 <= x153 <= 1
 0 <= x154 <= 1
 0 <= x155 <= 1
 0 <= x156 <= 1
 0 <= x157 <= 1
 0 <= x158 <= 1
 0 <= x159 <= 1
 0 <= x160 <= 1
 0 <= x161 <= 1
 0 <= x162 <= 1
 0 <= x163 <= 1
 0 <= x164 <= 1
 0 <= x165 <= 1
 0 <= x166 <= 1
 0 <= x167 <= 1
 0 <= x168 <= 1
 0 <= x169 <= 1
 0 <= x170 <= 1
 0 <= x171 <= 1
 0 <= x172 <= 1
 0 <= x173 <= 1
 0 <= x174 <= 1
 0 <= x175 <= 1
 0 <= x176 <= 1
 0 <= x177 <= 1
 0 <= x178 <= 1
 0 <= x179 <= 1
 0 <= x180 <= 1
 0 <= x181 <= 1
 0 <= x182 <= 1
 0 <= x183 <= 1
 0 <= x184 <= 1
 0 <= x185 <= 1
 0 <= x186 <= 1
 0 <= x187 <= 1
 0 <= x188 <= 1
 0 <= x189 <= 1
 0 <= x190 <= 1
 0 <= x191 <= 1
 0 <= x192 <= 1
 0 <= x193 <= 1
 0 <= x194 <= 1
 0 <= x195 <= 1
 0 <= x196 <= 1
 0 <= x197 <= 1
 0 <= x198 <= 1
 0 <= x199 <= 1
 0 <= x200 <= 1
 0 <= x201 <= 1
 0 <= x202 <= 1
 0 <= x203 <= 1
 0 <= x204 <= 1
 0 <= x205 <= 1
 0 <= x206 <= 1
 0 <= x207 <= 1
 0 <= x208 <= 1
 0 <= x209 <= 1
 0 <= x210 <= 1
 0 <= x211 <= 1
 0 <= x212 <= 1
 0 <= x213 <= 1
 0 <= x214 <= 1
 0 <= x215 <= 1
 0 <= x216 <= 1
 0 <= x217 <= 1
 0 <= x218 <= 1
 0 <= x219 <= 1
 0 <= x220 <= 1
 0 <= x221 <= 1
 0 <= x222 <= 1
 0 <= x223 <= 1
 0 <= x224 <= 1
 0 <= x225 <= 1
 0 <= x226 <= 1
 0 <= x227 <= 1
 0 <= x228 <= 1
 0 <= x229 <= 1
 0 <= x230 <= 1
 0 <= x231 <= 1
 0 <= x232 <= 1
 0 <= x233 <= 1
 0 <= x234 <= 1
 0 <= x235 <= 1
 0 <= x236 <= 1
 0 <= x237 <= 1
 0 <= x238 <= 1
 0 <= x239 <= 1
 0 <= x240 <= 1
 0 <= x241 <= 1
 0 <= x242 <= 1
 0 <= x243 <= 1
 0 <= x244 <= 1
 0 <= x245 <= 1
 0 <= x246 <= 1
 0 <= x247 <= 1
 0 <= x248 <= 1
 0 <= x249 <= 1
 0 <= x250 <= 1
 0 <= x251 <= 1
 0 <= x252 <= 1
 0 <= x253 <= 1
 0 <= x254 <= 1
 0 <= x255 <= 1
 0 <= x256 <= 1
 0 <= x257 <= 1
 0 <= x258 <= 1
 0 <= x259 <= 1
 0 <= x260 <= 1
 0 <= x261 <= 1
 0 <= x262 <= 1
 0 <= x263 <= 1
 0 <= x264 <= 1
 0 <= x265 <= 1
 0 <= x266 <= 1
 0 <= x267 <= 1
 0 <= x268 <= 1
 0 <= x269 <= 1
 0 <= x270 <= 1
 0 <= x271 <= 1
 0 <= x272 <= 1
 0 <= x273 <= 1
 0 <= x274 <= 1
 0 <= x275 <= 1
 0 <= x276 <= 1
 0 <= x277 <= 1
 0 <= x278 <= 1
 0 <= x279 <= 1
 0 <= x280 <= 1
 0 <= x281 <= 1
 0 <= x282 <= 1
 0 <= x283 <= 1
 0 <= x284 <= 1
 0 <= x285 <= 1
 0 <= x286 <= 1
 0 <= x287 <= 1
 0 <= x288 <= 1
 0 <= x289 <= 1
 0 <= x290 <= 1
 0 <= x291 <= 1
 0 <= x292 <= 1
 0 <= x293 <= 1
 0 <= x294 <= 1
 0 <= x295 <= 1
 0 <= x296 <= 1
 0 <= x297 <= 1
 0 <= x298 <= 1
 0 <= x299 <= 1
 0 <= x300 <= 1
 0 <= x301 <= 1
 0 <= x302 <= 1
 0 <= x303 <= 1
 0 <= x304 <= 1
 0 <= x305 <= 1
 0 <= x306 <= 1
 0 <= x307 <= 1
 0 <= x308 <= 1
 0 <= x309 <= 1
 0 <= x310 <= 1
 0 <= x311 <= 1
 0 <= x312 <= 1
 0 <= x313 <= 1
 0 <= x314 <= 1
 0 <= x315 <= 1
 0 <= x316 <= 1
 0 <= x317 <= 1
 0 <= x318 <= 1
 0 <= x319 <= 1
 0 <= x320 <= 1
 0 <= x321 <= 1
 0 <= x322 <= 1
 0 <= x323 <= 1
 0 <= x324 <= 1
 0 <= x325 <= 1
 0 <= x326 <= 1
 0 <= x327 <= 1
 0 <= x328 <= 1
 0 <= x329 <= 1
 0 <= x330 <= 1
 0 <= x331 <= 1
 0 <= x332 <= 1
 0 <= x333 <= 1
 0 <= x334 <= 1
 0 <= x335 <= 1
 0 <= x336 <= 1
 0 <= x337 <= 1
 0 <= x338 <= 1
 0 <= x339 <= 1
 0 <= x340 <= 1
 0 <= x341 <= 1
 0 <= x342 <= 1
 0 <= x343 <= 1
 0 <= x344 <= 1
 0 <= x345 <= 1
 0 <= x346 <= 1
 0 <= x347 <= 1
 0 <= x348 <= 1
 0 <= x349 <= 1
 0 <= x350 <= 1
 0 <= x351 <= 1
 0 <= x352 <= 1
 0 <= x353 <= 1
 0 <= x354 <= 1
 0 <= x355 <= 1
 0 <= x356 <= 1
 0 <= x357 <= 1
 0 <= x358 <= 1
 0 <= x359 <= 1
 0 <= x360 <= 1
 0 <= x361 <= 1
 0 <= x362 <= 1
 0 <= x363 <= 1
 0 <= x364 <= 1
 0 <= x365 <= 1
 0 <= x366 <= 1
 0 <= x367 <= 1
 0 <= x368 <= 1
 0 <= x369 <= 1
 0 <= x370 <= 1
 0 <= x371 <= 1
 0 <= x372 <= 1
 0 <= x373 <= 1
 0 <= x374 <= 1
 0 <= x375 <= 1
 0 <= x376 <= 1
 0 <= x377 <= 1
 0 <= x378 <= 1
 0 <= x379 <= 1
 0 <= x380 <= 1
 0 <= x381 <= 1
 0 <= x382 <= 1
 0 <= x383 <= 1
 0 <= x384 <= 1
 0 <= x385 <= 1
 0 <= x386 <= 1
 0 <= x387 <= 1
 0 <= x388 <= 1
 0 <= x389 <= 1
 0 <= x390 <= 1
 0 <= x391 <= 1
 0 <= x392 <= 1
 0 <= x393 <= 1
 0 <= x394 <= 1
 0 <= x395 <= 1
 0 <= x396 <= 1
 0 <= x397 <= 1
 0 <= x398 <= 1
 0 <= x399 <= 1
 0 <= x400 <= 1
 0 <= x401 <= 1
 0 <= x402 <= 1
 0 <= x403 <= 1
 0 <= x404 <= 1
 0 <= x405 <= 1
 0 <= x406 <= 1
 0 <= x407 <= 1
 0 <= x408 <= 1
 0 <= x409 <= 1
 0 <= x410 <= 1
 0 <= x411 <= 1
 0 <= x412 <= 1
 0 <= x413 <= 1
 0 <= x414 <= 1
 0 <= x415 <= 1
 0 <= x416 <= 1
 0 <= x417 <= 1
 0 <= x418 <= 1
 0 <= x419 <= 1
 0 <= x420 <= 1
 0 <= x421 <= 1
 0 <= x422 <= 1
 0 <= x423 <= 1
 0 <= x424 <= 1
 0 <= x425 <= 1
 0 <= x426 <= 1
 0 <= x427 <= 1
 0 <= x428 <= 1
 0 <= x429 <= 1
 0 <= x430 <= 1
 0 <= x431 <= 1
 0 <= x432 <= 1
 0 <= x433 <= 1
 0 <= x434 <= 1
 0 <= x435 <= 1
 0 <= x436 <= 1
 0 <= x437 <= 1
 0 <= x438 <= 1
 0 <= x439 <= 1
 0 <= x440 <= 1
 0 <= x441 <= 1
 0 <= x442 <= 1
 0 <= x443 <= 1
 0 <= x444 <= 1
 0 <= x445 <= 1
 0 <= x446 <= 1
 0 <= x447 <= 1
 0 <= x448 <= 1
 0 <= x449 <= 1
 0 <= x450 <= 1
 0 <= x451 <= 1
 0 <= x452 <= 1
 0 <= x453 <= 1
 0 <= x454 <= 1
 0 <= x455 <= 1
 0 <= x456 <= 1
 0 <= x457 <= 1
 0 <= x458 <= 1
 0 <= x459 <= 1
 0 <= x460 <= 1
 0 <= x461 <= 1
 0 <= x462 <= 1
 0 <= x463 <= 1
 0 <= x464 <= 1
 0 <= x465 <= 1
 0 <= x466 <= 1
 0 <= x467 <= 1
 0 <= x468 <= 1
 0 <= x469 <= 1
 0 <= x470 <= 1
 0 <= x471 <= 1
 0 <= x472 <= 1
 0 <= x473 <= 1
 0 <= x474 <= 1
 0 <= x475 <= 1
 0 <= x476 <= 1
 0 <= x477 <= 1
 0 <= x478 <= 1
 0 <= x479 <= 1
 0 <= x480 <= 1
 0 <= x481 <= 1
 0 <= x482 <= 1
 0 <= x483 <= 1
 0 <= x484 <= 1
 0 <= x485 <= 1
 0 <= x486 <= 1
 0 <= x487 <= 1
 0 <= x488 <= 1
 0 <= x489 <= 1
 0 <= x490 <= 1
 0 <= x491 <= 1
 0 <= x492 <= 1
 0 <= x493 <= 1
 0 <= x494 <= 1
 0 <= x495 <= 1
 0 <= x496 <= 1
 0 <= x497 <= 1
 0 <= x498 <= 1
 0 <= x499 <= 1
 0 <= x500 <= 1
 0 <= x501 <= 1
 0 <= x502 <= 1
 0 <= x503 <= 1
 0 <= x504 <= 1
 0 <= x505 <= 1
 0 <= x506 <= 1
 0 <= x507 <= 1
 0 <= x508 <= 1
 0 <= x509 <= 1
 0 <= x510 <= 1
 0 <= x511 <= 1
 0 <= x512 <= 1
 0 <= x513 <= 1
 0 <= x514 <= 1
 0 <= x515 <= 1
 0 <= x516 <= 1
 0 <= x517 <= 1
 0 <= x518 <= 1
 0 <= x519 <= 1
 0 <= x520 <= 1
 0 <= x521 <= 1
 0 <= x522 <= 1
 0 <= x523 <= 1
 0 <= x524 <= 1
 0 <= x525 <= 1
 0 <= x526 <= 1
 0 <= x527 <= 1
 0 <= x528 <= 1
 0 <= x529 <= 1
 0 <= x530 <= 1
 0 <= x531 <= 1
 0 <= x532 <= 1
 0 <= x533 <= 1
 0 <= x534 <= 1
 0 <= x535 <= 1
 0 <= x536 <= 1
 0 <= x537 <= 1
 0 <= x538 <= 1
 0 <= x539 <= 1
 0 <= x540 <= 1
 0 <= x541 <= 1
 0 <= x542 <= 1
 0 <= x543 <= 1
 0 <= x544 <= 1
 0 <= x545 <= 1
 0 <= x546 <= 1
 0 <= x547 <= 1
 0 <= x548 <= 1
 0 <= x549 <= 1
 0 <= x550 <= 1
Binaries
 x501  x502  x503  x504  x505  x506  x507  x508  x509  x510  x511  x512  x513 
 x514  x515  x516  x517  x518  x519  x520  x521  x522  x523  x524  x525  x526 
 x527  x528  x529  x530  x531  x532  x533  x534  x535  x536  x537  x538  x539 
 x540  x541  x542  x543  x544  x545  x546  x547  x548  x549  x550 
End
